p cnf 18 36
a 8 17 0
e 1 2 3 4 5 6 7 9 10 11 12 13 14 15 16 18 0
3 1 0
3 -2 0
-1 2 -3 0
6 5 0
6 -2 0
-5 2 -6 0
-7 4 0
-7 6 0
-4 -6 7 0
-2 5 -8 0
2 -5 -8 0
-2 -5 8 0
2 5 8 0
9 -7 0
9 -8 0
7 8 -9 0
10 3 0
10 9 0
-3 -9 -10 0
13 -11 0
13 -12 0
11 12 -13 0
14 -10 0
14 -13 0
10 13 -14 0
-17 15 0
-17 16 0
-15 -16 17 0
-14 -17 -18 0
14 17 -18 0
-14 17 18 0
14 -17 18 0
-11 -7 -1 3 9 0
12 -6 3 -16 -18 10 4 0
-11 10 -13 0
18 0
